NAME : tsp_329_sol.txt
COMMENT : OR-Tools Guided Local Search
TYPE : TOUR
DIMENSION : 50
COST : 5807
STATUS : ROUTING_SUCCESS
GAP : 0.00% (Reference Solution)
TOUR_SECTION
1
8
27
22
38
25
6
45
44
43
36
33
13
50
41
32
19
42
31
15
34
12
26
28
23
2
24
46
7
11
4
10
21
14
29
5
48
49
3
16
37
30
9
47
20
17
35
18
40
39
-1
